c description: tiling of 
c generator: CNFgen (0.9.0)
c copyright: (C) 2012-2020 Massimo Lauria <massimo.lauria@uniroma1.it>
c url: https://massimolauria.net/cnfgen
c
p cnf 20 84
-1 -8 0
-1 -10 0
-1 -12 0
-1 -13 0
-8 -10 0
-8 -12 0
-8 -13 0
-10 -12 0
-10 -13 0
-12 -13 0
1 8 10 12 13 0
-1 -12 0
-1 -13 0
-12 -13 0
1 12 13 0
-1 -12 0
-1 -13 0
-1 -15 0
-12 -13 0
-12 -15 0
-13 -15 0
1 12 13 15 0
-1 -15 0
-1 -20 0
-15 -20 0
1 15 20 0
-2 -8 0
-2 -11 0
-8 -11 0
2 8 11 0
-2 -8 0
-2 -11 0
-2 -12 0
-8 -11 0
-8 -12 0
-11 -12 0
2 8 11 12 0
-3 -19 0
3 19 0
-4 -5 0
-4 -18 0
-4 -20 0
-5 -18 0
-5 -20 0
-18 -20 0
4 5 18 20 0
-4 -18 0
4 18 0
-5 -6 0
-5 -7 0
-5 -9 0
-6 -7 0
-6 -9 0
-7 -9 0
5 6 7 9 0
-5 -7 0
-5 -17 0
-5 -18 0
-7 -17 0
-7 -18 0
-17 -18 0
5 7 17 18 0
-5 -17 0
5 17 0
-6 -7 0
6 7 0
-7 -9 0
-7 -16 0
-9 -16 0
7 9 16 0
-9 -16 0
9 16 0
-10 -12 0
-10 -20 0
-12 -20 0
10 12 20 0
-10 -15 0
-10 -18 0
-10 -20 0
-15 -18 0
-15 -20 0
-18 -20 0
10 15 18 20 0
14 0